(declare-const |sum':44:52:55:58| Int)
(declare-const havoc Int)
(declare-const |havoc:4| Int)
(declare-const |i':43:53:56:59| Int)
(declare-const |K:50:51:54:57| Int)
(declare-const |havoc:2| Int)
(assert (and (= havoc 0) (<= (- |havoc:2|) 0) (<= (+ |havoc:2| -100) 0)
               (= |havoc:4| 0)
               (or (not (<= (- |K:50:51:54:57|) 0))
                     (= (+ (* 2 |sum':44:52:55:58|)
                             (- (* |K:50:51:54:57| |K:50:51:54:57|))
                             |K:50:51:54:57| (* -2 |havoc:4|)
                             (* -2 (* |K:50:51:54:57| havoc))) 0))
               (or (not (<= (- |K:50:51:54:57|) 0))
                     (= (+ |i':43:53:56:59| (- |K:50:51:54:57|) (- havoc)) 0))
               (or (not (<= (- |K:50:51:54:57|) 0))
                     (<= (+ |sum':44:52:55:58| |K:50:51:54:57| (- |havoc:4|)
                              (- (* |K:50:51:54:57| |havoc:2|))) 0))
               (or (not (<= (- |K:50:51:54:57|) 0))
                     (<= (+ (- |sum':44:52:55:58|) |havoc:4|) 0))
               (or (and (= |K:50:51:54:57| 0)
                          (= (+ (- |sum':44:52:55:58|) |havoc:4|) 0)
                          (= (+ (- |i':43:53:56:59|) havoc) 0))
                     (and (<= (+ (- |K:50:51:54:57|) 1) 0)
                            (<= (+ (- |havoc:2|) havoc 1) 0)
                            (<= (- |havoc:4|) 0) (<= (- havoc) 0)
                            (<= (+ |i':43:53:56:59| (- |sum':44:52:55:58|) -1) 0)
                            (<= (+ |i':43:53:56:59| (- |havoc:2|)) 0)
                            (<= (+ (- |i':43:53:56:59|) 1) 0)))
               (<= (- |K:50:51:54:57|) 0) (<= (- |i':43:53:56:59|) 0)
               (<= (- |havoc:2|) 0) (<= (- |sum':44:52:55:58|) 0)
               (<= (+ (- |i':43:53:56:59|) |havoc:2|) 0)
               (not (<= (- |sum':44:52:55:58|) 0))))
(check-sat)
